NAME:  test1
TYPE: AGTSP
COMMENT: gtsp tours
DIMENSION:  73
GTSP_SETS: 13
EDGE_WEIGHT_TYPE: EXPLICIT
EDGE_WEIGHT_FORMAT: FULL_MATRIX 
EDGE_WEIGHT_SECTION
999999	0	999999	999999	999999	999999	27632	27632	27632	27624	999999	999999	27624	27624	27616	999999	999999	999999	27636	27636	27636	27628	999999	999999	27634	27634	27634	27626	999999	999999	27654	27654	27654	27654	27646	999999	27629	27629
999999	999999	0	999999	999999	999999	27632	27632	27632	27632	27624	999999	27624	27624	27624	27616	999999	999999	27636	27636	27636	27636	27628	999999	27634	27634	27634	27634	27626	999999	27654	27654	27654	27654	27654	27646	27629	27629
999999	999999	999999	0	999999	999999	27632	27632	27632	27632	27632	27624	27624	27624	27624	27624	27616	999999	27636	27636	27636	27636	27636	27628	27634	27634	27634	27634	27634	27626	27654	27654	27654	27654	999999	999999	27629	27629
999999	999999	999999	999999	0	999999	27632	27632	27632	27632	27632	999999	27624	27624	27624	27624	27624	27616	27636	27636	27636	27636	27636	999999	27634	27634	27634	27634	27634	999999	27654	27654	27654	27654	27654	999999	27629	27629
999999	999999	999999	999999	999999	0	27632	27632	27632	27632	27632	27632	27624	27624	27624	27624	27624	27624	27636	27636	27636	27636	27636	27636	27634	27634	27634	27634	27634	27634	27654	27654	27654	27654	27654	27654	27629	27629
0	999999	999999	999999	999999	999999	27632	27632	27624	999999	999999	999999	27624	27616	999999	999999	999999	999999	27636	27636	27628	999999	999999	999999	27634	27634	27626	999999	999999	999999	27654	27654	27654	27646	999999	999999	27629	27629
27632	27632	27632	27624	999999	999999	999999	0	999999	999999	999999	999999	27632	27632	27632	27624	999999	999999	27644	27644	27644	27644	27636	999999	27642	27642	27642	27634	999999	999999	27656	27656	27656	27656	27648	999999	27645	27645
27632	27632	27632	27632	27624	999999	999999	999999	0	999999	999999	999999	27632	27632	27632	27632	27624	999999	27644	27644	27644	27644	27644	27636	27642	27642	27642	27642	27634	999999	27656	27656	27656	27656	27656	27648	27645	27645
27632	27632	27632	27632	27632	27624	999999	999999	999999	0	999999	999999	27632	27632	27632	27632	27632	27624	27644	27644	27644	27644	999999	999999	27642	27642	27642	27642	27642	27634	27656	27656	27656	27656	999999	999999	27645	27645
27632	27632	27632	27632	27632	999999	999999	999999	999999	999999	0	999999	27632	27632	27632	27632	27632	999999	27644	27644	27644	27644	27644	999999	27642	27642	27642	27642	27642	999999	27656	27656	27656	27656	27656	999999	27645	27645
27632	27632	27632	27632	27632	27632	999999	999999	999999	999999	999999	0	27632	27632	27632	27632	27632	27632	27644	27644	27644	27644	27644	27644	27642	27642	27642	27642	27642	27642	27656	27656	27656	27656	27656	27656	27645	27645
27632	27632	27624	999999	999999	999999	0	999999	999999	999999	999999	999999	27632	27632	27624	999999	999999	999999	27644	27644	27644	27636	999999	999999	27642	27642	27634	999999	999999	999999	27656	27656	27656	27648	999999	999999	27645	27645
27624	27624	27616	999999	999999	999999	27632	27632	27632	27624	999999	999999	999999	0	999999	999999	999999	999999	27645	27645	27645	27645	27637	999999	27643	27643	27643	27643	27635	999999	27663	27663	27663	27663	27663	27655	27628	27628
27624	27624	27624	27616	999999	999999	27632	27632	27632	27632	27624	999999	999999	999999	0	999999	999999	999999	27645	27645	27645	27645	27645	27637	27643	27643	27643	27643	27643	27635	27663	27663	27663	999999	999999	999999	27628	27628
27624	27624	27624	27624	27616	999999	27632	27632	27632	27632	27632	27624	999999	999999	999999	0	999999	999999	27645	27645	27645	27645	999999	999999	27643	27643	27643	27643	999999	999999	27663	27663	27663	27663	999999	999999	27628	27628
27624	27624	27624	27624	27624	27616	27632	27632	27632	27632	27632	999999	999999	999999	999999	999999	0	999999	27645	27645	27645	27645	27645	999999	27643	27643	27643	27643	27643	999999	27663	27663	27663	27663	27663	999999	27628	27628
27624	27624	27624	27624	27624	27624	27632	27632	27632	27632	27632	27632	999999	999999	999999	999999	999999	0	27645	27645	27645	27645	27645	27645	27643	27643	27643	27643	27643	27643	27663	27663	27663	27663	27663	27663	27628	27628
27624	27616	999999	999999	999999	999999	27632	27632	27624	999999	999999	999999	0	999999	999999	999999	999999	999999	27645	27645	27645	27637	999999	999999	27643	27643	27643	27635	999999	999999	27663	27663	27663	27663	27655	999999	27628	27620
27636	27636	27636	27628	999999	999999	27644	27644	27644	27644	27636	999999	27645	27645	27645	27645	27637	999999	999999	0	999999	999999	999999	999999	27616	27616	27608	999999	999999	999999	27633	27633	27633	27625	999999	999999	27647	27647
27636	27636	27636	27636	27628	999999	27644	27644	27644	27644	27644	27636	27645	27645	27645	27645	27645	27637	999999	999999	0	999999	999999	999999	27616	27616	27616	27608	999999	999999	27633	27633	27633	27633	27625	999999	27647	27647
27636	27636	27636	27636	27636	27628	27644	27644	27644	27644	999999	999999	27645	27645	27645	27645	999999	999999	999999	999999	999999	0	999999	999999	27616	27616	27616	27616	27608	999999	27633	27633	27633	27633	27633	27625	27647	27647
27636	27636	27636	27636	27636	999999	27644	27644	27644	27644	27644	999999	27645	27645	27645	27645	27645	999999	999999	999999	999999	999999	0	999999	27616	27616	27616	27616	27616	27608	27633	27633	27633	27633	27633	999999	27647	27647
27636	27636	27636	27636	27636	27636	27644	27644	27644	27644	27644	27644	27645	27645	27645	27645	27645	27645	999999	999999	999999	999999	999999	0	27616	27616	27616	27616	27616	27616	27633	27633	27633	27633	27633	27633	27647	27647
27636	27636	27628	999999	999999	999999	27644	27644	27644	27636	999999	999999	27645	27645	27645	27637	999999	999999	0	999999	999999	999999	999999	999999	27616	27608	999999	999999	999999	999999	27633	27633	27625	999999	999999	999999	27647	27647
27634	27634	27634	27626	999999	999999	27642	27642	27642	27634	999999	999999	27643	27643	27643	27643	27635	999999	27616	27616	27608	999999	999999	999999	999999	0	999999	999999	999999	999999	27635	27635	27635	27627	999999	999999	27645	27645
27634	27634	27634	27634	27626	999999	27642	27642	27642	27642	27634	999999	27643	27643	27643	27643	27643	27635	27616	27616	27616	27608	999999	999999	999999	999999	0	999999	999999	999999	27635	27635	27635	27635	27627	999999	27645	27645
27634	27634	27634	27634	27634	27626	27642	27642	27642	27642	27642	27634	27643	27643	27643	27643	999999	999999	27616	27616	27616	27616	27608	999999	999999	999999	999999	0	999999	999999	27635	27635	27635	27635	27635	27627	27645	27645
27634	27634	27634	27634	27634	999999	27642	27642	27642	27642	27642	999999	27643	27643	27643	27643	27643	999999	27616	27616	27616	27616	27616	27608	999999	999999	999999	999999	0	999999	27635	27635	27635	27635	27635	999999	27645	27645
27634	27634	27634	27634	27634	27634	27642	27642	27642	27642	27642	27642	27643	27643	27643	27643	27643	27643	27616	27616	27616	27616	27616	27616	999999	999999	999999	999999	999999	0	27635	27635	27635	27635	27635	27635	27645	27645
27634	27634	27626	999999	999999	999999	27642	27642	27634	999999	999999	999999	27643	27643	27643	27635	999999	999999	27616	27608	999999	999999	999999	999999	0	999999	999999	999999	999999	999999	27635	27635	27627	999999	999999	999999	27645	27645
27654	27654	27654	27654	27646	999999	27656	27656	27656	27656	27648	999999	27663	27663	27663	27663	27663	27655	27633	27633	27633	27625	999999	999999	27635	27635	27635	27627	999999	999999	999999	0	999999	999999	999999	999999	27666	27666
27654	27654	27654	27654	27654	27646	27656	27656	27656	27656	27656	27648	27663	27663	27663	999999	999999	999999	27633	27633	27633	27633	27625	999999	27635	27635	27635	27635	27627	999999	999999	999999	0	999999	999999	999999	27666	27666
27654	27654	27654	27654	999999	999999	27656	27656	27656	27656	999999	999999	27663	27663	27663	27663	999999	999999	27633	27633	27633	27633	27633	27625	27635	27635	27635	27635	27635	27627	999999	999999	999999	0	999999	999999	27666	27666
27654	27654	27654	27654	27654	999999	27656	27656	27656	27656	27656	999999	27663	27663	27663	27663	27663	999999	27633	27633	27633	27633	27633	999999	27635	27635	27635	27635	27635	999999	999999	999999	999999	999999	0	999999	27666	27666
27654	27654	27654	27654	27654	27654	27656	27656	27656	27656	27656	27656	27663	27663	27663	27663	27663	27663	27633	27633	27633	27633	27633	27633	27635	27635	27635	27635	27635	27635	999999	999999	999999	999999	999999	0	27666	27666
27654	27654	27654	27646	999999	999999	27656	27656	27656	27648	999999	999999	27663	27663	27663	27663	27655	999999	27633	27633	27625	999999	999999	999999	27635	27635	27627	999999	999999	999999	0	999999	999999	999999	999999	999999	27666	27666
27629	27629	27629	27621	999999	999999	27645	27645	27645	27645	27637	999999	27628	27628	27620	999999	999999	999999	27647	27647	27647	27647	27639	999999	27645	27645	27645	27645	27637	999999	27666	27666	27666	27666	27666	27658	999999	0
27629	27629	27629	27629	27621	999999	27645	27645	27645	27645	27645	27637	27628	27628	27628	27620	999999	999999	27647	27647	27647	27647	27647	27639	27645	27645	27645	27645	27645	27637	27666	27666	27666	999999	999999	999999	999999	999999
GTSP_SET_SECTION:
1 1 2 3 4 5 6 -1
2 7 8 9 10 11 12 -1
3 13 14 15 16 17 18 -1
4 19 20 21 22 23 24 -1
5 25 26 27 28 29 30 -1
6 31 32 33 34 35 36 -1
7 37 38 39 40 41 42 -1
8 43 44 45 46 47 48 -1
9 49 50 51 52 53 54 -1
10 55 56 57 58 59 60 -1
11 61 62 63 64 65 66 -1
12 67 68 69 70 71 72 -1
13 73 -1
EOF